100
364 317
773 280
55 734
336 949
757 47
391 793
245 986
106 635
238 396
419 615
770 470
82 836
421 314
244 71
626 515
876 153
303 776
515 903
625 360
133 757
496 533
245 701
28 238
622 100
442 849
834 600
55 83
832 279
971 344
145 310
700 65
128 762
963 636
543 114
10 811
66 571
816 45
473 607
524 647
271 847
82 655
157 118
418 491
14 982
549 459
106 172
964 766
459 295
815 444
510 886
833 134
393 493
94 157
269 14
480 916
768 656
739 245
998 842
823 802
579 567
32 574
960 682
508 610
931 680
583 546
224 185
430 6
535 58
593 147
658 343
986 707
303 792
349 296
22 432
25 45
328 329
363 66
931 809
665 659
523 931
228 635
596 168
987 293
257 632
52 203
855 606
771 208
674 52
476 886
661 23
194 7
494 286
653 376
733 152
721 599
449 407
101 640
517 65
458 381
697 22
